p cnf 13 49
-10 11 -12 0
7 -8 -13 0
-8 -10 -12 0
-3 9 -13 0
3 6 8 0
-6 -7 -9 0
-5 -6 12 0
3 -9 11 0
-5 -7 -8 0
-7 -8 -11 0
-4 6 -12 0
6 7 -13 0
3 4 -5 0
1 3 -7 0
-1 -3 5 0
-8 10 -13 0
-3 6 -8 0
2 8 -13 0
-7 8 12 0
-4 -5 13 0
2 -6 -8 0
2 -5 7 0
2 4 -12 0
-9 -10 -13 0
-9 11 12 0
2 -4 6 0
5 -6 7 0
1 -7 -11 0
8 -11 13 0
-2 -9 -10 0
3 -7 8 0
1 5 9 0
-10 -11 13 0
-3 6 11 0
-4 -6 11 0
1 4 -7 0
-5 -11 13 0
1 5 -11 0
5 7 -11 0
1 3 5 0
1 11 -12 0
-4 6 11 0
-2 4 -12 0
6 10 -12 0
-8 -12 13 0
5 -6 9 0
-1 4 9 0
7 -10 11 0
1 6 11 0
